SPARKNaCl/why3-z3/sparknacl-sign.adb_339_24_range_check4_1.smt2
;; produced by z3_gnatprove.drv ;;
(set-info :smt-lib-version 2.5)
(set-info :source |VC generated by SPARK 2014|)
(set-info :category industrial)
(set-info :status unknown)
;;; generated by SMT-LIB2 driver
;;; SMT-LIB2 driver: bit-vectors, common part
;;; SMT-LIB2: integer arithmetic
(declare-datatypes ()
  ((int__ref (int__refqtmk (int__content Int)))))

(declare-sort i64 0)

;; "i64'int"
(declare-fun i64qtint (i64) Int)

;; "i64'axiom"
(assert
  (forall ((i i64))
    (and
      (<= (- 9223372036854775808) (i64qtint i))
      (<= (i64qtint i) 9223372036854775807))))

;; "in_range"
(define-fun in_range ((x Int)) Bool
  (and (<= (- 9223372036854775808) x) (<= x 9223372036854775807)))

;; "to_rep"
(define-fun to_rep ((x i64)) Int
  (i64qtint x))

;; "of_rep"
(declare-fun of_rep (Int) i64)

;; "inversion_axiom"
(assert
  (forall ((x i64)) (! (= (of_rep (to_rep x)) x) :pattern ((to_rep x)) )))

;; "range_axiom"
(assert (forall ((x i64)) (! (in_range (to_rep x)) :pattern ((to_rep x)) )))

;; "coerce_axiom"
(assert
  (forall ((x Int))
    (! (=> (in_range x) (= (to_rep (of_rep x)) x)) :pattern ((to_rep
                                                               (of_rep x))) )))

(declare-sort map1 0)

;; "has_bounds"
(declare-fun has_bounds (map1
  Int
  Int) Bool)

;; "get"
(declare-fun get (map1
  Int) i64)

(declare-const x map1)

(declare-sort xl_limb 0)

;; "xl_limb'int"
(declare-fun xl_limbqtint (xl_limb) Int)

;; "xl_limb'axiom"
(assert
  (forall ((i xl_limb))
    (and
      (<= (- 33299444949360) (xl_limbqtint i))
      (<= (xl_limbqtint i) 33299444949360))))

;; "in_range"
(define-fun in_range1 ((x1 Int)) Bool
  (and (<= (- 33299444949360) x1) (<= x1 33299444949360)))

;; "to_rep"
(define-fun to_rep1 ((x1 xl_limb)) Int
  (xl_limbqtint x1))

;; "of_rep"
(declare-fun of_rep1 (Int) xl_limb)

;; "inversion_axiom"
(assert
  (forall ((x1 xl_limb))
    (! (= (of_rep1 (to_rep1 x1)) x1) :pattern ((to_rep1 x1)) )))

;; "range_axiom"
(assert
  (forall ((x1 xl_limb))
    (! (in_range1 (to_rep1 x1)) :pattern ((to_rep1 x1)) )))

;; "coerce_axiom"
(assert
  (forall ((x1 Int))
    (! (=> (in_range1 x1) (= (to_rep1 (of_rep1 x1)) x1)) :pattern ((to_rep1
                                                                    (of_rep1
                                                                    x1))) )))

(declare-sort map2 0)

(declare-datatypes ()
  ((map__ref (map__refqtmk (map__content map2)))))

;; "has_bounds"
(declare-fun has_bounds1 (map2
  Int
  Int) Bool)

;; "get"
(declare-fun get1 (map2
  Int) xl_limb)

;; "set"
(declare-fun set (map2
  Int
  xl_limb) map2)

;; "set_eq"
(assert
  (forall ((a map2) (i Int) (v xl_limb))
    (! (= (get1 (set a i v) i) v) :pattern ((set a i v)) )))

;; "set_neq"
(assert
  (forall ((a map2) (i Int) (v xl_limb))
    (! (forall ((j Int))
         (! (=> (not (= i j)) (= (get1 (set a i v) j) (get1 a j))) :pattern (
         (get1
           a
           j)) :pattern ((get1 (set a i v) j)) )) :pattern ((set a i v)) )))

;; "set_has_bounds"
(assert
  (forall ((a map2) (i Int) (f Int) (l Int) (v xl_limb))
    (! (=>
         (and (<= f i) (<= i l))
         (=> (has_bounds1 a f l) (has_bounds1 (set a i v) f l))) :pattern (
    (has_bounds1
      (set a i v)
      f
      l)) )))

;; "temp_____aggregate_def_2288"
(declare-fun temp_____aggregate_def_2288 (Int) map2)

(declare-const rliteral xl_limb)

;; "rliteral_axiom"
(assert (= (xl_limbqtint rliteral) 0))

(declare-const xl map2)

;; "Assume"
(assert (has_bounds x 0 63))

;; "Assume"
(assert (has_bounds x 0 63))

;; "Assume"
(assert (has_bounds1 xl 0 63))

;; "Assume"
(assert
  (forall ((k Int))
    (=>
      (and (<= 0 k) (<= k 63))
      (let ((temp___2311 (to_rep (get x k))))
        (and (<= 0 temp___2311) (<= temp___2311 2081055))))))

(declare-const temp___2292 map2)

;; "H"
(assert (has_bounds1 temp___2292 0 63))

;; "H"
(assert
  (forall ((temp___2291 Int))
    (! (=>
         (and (<= 0 temp___2291) (<= temp___2291 63))
         (= (get1 temp___2292 temp___2291) rliteral)) :pattern ((get1
                                                                  temp___2292
                                                                  temp___2291)) )))

;; "H"
(assert (= temp___2292 (temp_____aggregate_def_2288 0)))

;; "temp_____aggregate_def_2288'result'unused"
(define-fun temp_____aggregate_def_2288qtresultqtunused () map2
  temp___2292)

(declare-const xl1 map2)

;; "xl'unused"
(define-fun xlqtunused () map__ref
  (map__refqtmk xl1))

;; "H"
(assert (= xl1 temp___2292))

(declare-const k Int)

;; "k'unused"
(define-fun kqtunused () int__ref
  (int__refqtmk k))

;; "H"
(assert (= k 0))

;; "int__content'result'unused"
(define-fun int__contentqtresultqtunused () Int
  k)

;; "o"
(define-fun o () Bool
  (ite (<= k 63) true false))

;; "infix <='result'unused"
(define-fun infix_lseqqtresultqtunused () Bool
  o)

;; "int__content'result'unused"
(define-fun int__contentqtresultqtunused1 () Int
  k)

;; "o"
(define-fun o1 () Bool
  (ite (<= 0 k) true false))

;; "infix <='result'unused"
(define-fun infix_lseqqtresultqtunused1 () Bool
  o1)

;; "o"
(define-fun o2 () Bool
  (and o1 o))

;; "andb'result'unused"
(define-fun andbqtresultqtunused () Bool
  o2)

;; "H"
(assert (= o2 true))

;; "temp___loop_entry_2298'unused"
(define-fun temp___loop_entry_2298qtunused () map2
  xl1)

;; "map__content'result'unused"
(define-fun map__contentqtresultqtunused () map2
  xl1)

;; "int__content'result'unused"
(define-fun int__contentqtresultqtunused2 () Int
  k)

;; "o"
(define-fun o3 () i64
  (get x k))

;; "get'result'unused"
(define-fun getqtresultqtunused () i64
  o3)

(declare-const o4 Int)

;; "Ensures"
(assert (= (to_rep o3) o4))

;; "to_rep'result'unused"
(define-fun to_repqtresultqtunused () Int
  o4)

;; "Ensures"
(assert (in_range1 o4))

;; "range_check_'result'unused"
(define-fun range_check_qtresultqtunused () Int
  o4)

(declare-const o5 xl_limb)

;; "Ensures"
(assert (= (to_rep1 o5) o4))

;; "of_rep'result'unused"
(define-fun of_repqtresultqtunused () xl_limb
  o5)

;; "int__content'result'unused"
(define-fun int__contentqtresultqtunused3 () Int
  k)

;; "map__content'result'unused"
(define-fun map__contentqtresultqtunused1 () map2
  xl1)

;; "o"
(define-fun o6 () map2
  (set xl1 k o5))

;; "set'result'unused"
(define-fun setqtresultqtunused () map2
  o6)

(declare-const xl2 map2)

;; "xl'unused"
(define-fun xlqtunused1 () map__ref
  (map__refqtmk xl2))

;; "H"
(assert (= xl2 o6))

(declare-const usf Int)

(declare-const anyqtresultqtunused Int)

;; "H"
(assert (= anyqtresultqtunused usf))

(declare-const aqtunused Int)

;; "H"
(assert (= aqtunused usf))

(declare-const int__contentqtresultqtunused4 Int)

;; "H"
(assert (= int__contentqtresultqtunused4 k))

(declare-const o7 Bool)

;; "H"
(assert (= o7 (ite (<= usf k) true false)))

(declare-const infix_lseqqtresultqtunused2 Bool)

;; "H"
(assert (= infix_lseqqtresultqtunused2 o7))

(declare-const o8 Bool)

;; "H"
(assert (= o8 (ite (<= 0 usf) true false)))

(declare-const infix_lseqqtresultqtunused3 Bool)

;; "H"
(assert (= infix_lseqqtresultqtunused3 o8))

(declare-const andbqtresultqtunused1 Bool)

;; "H"
(assert (= andbqtresultqtunused1 (and o8 o7)))

;; "_f'unused"
(define-fun usfqtunused () Bool
  (ite (forall ((a Int))
         (=>
           (and (<= 0 a) (<= a k))
           (= (to_rep1 (get1 xl2 a)) (to_rep (get x a)))))
    true
    false))

;; "any'result'unused"
(define-fun anyqtresultqtunused1 () Bool
  (ite (forall ((a Int))
         (=>
           (and (<= 0 a) (<= a k))
           (= (to_rep1 (get1 xl2 a)) (to_rep (get x a)))))
    true
    false))

(declare-const xl3 map2)

(declare-const k1 Int)

;; "k'unused"
(define-fun kqtunused1 () int__ref
  (int__refqtmk k1))

;; "xl'unused"
(define-fun xlqtunused2 () map__ref
  (map__refqtmk xl3))

;; "LoopInvariant"
(assert
  (forall ((a Int))
    (=>
      (and (<= 0 a) (<= a k1))
      (= (to_rep1 (get1 xl3 a)) (to_rep (get x a))))))

;; "Assume"
(assert
  (= (and (ite (and
                 (has_bounds1 xl3 0 63)
                 (forall ((temp___2299 Int))
                   (=>
                     (and (<= 0 temp___2299) (<= temp___2299 63))
                     (=>
                       (or
                         (< 63 temp___2299)
                         (or (< temp___2299 0) (< k1 temp___2299)))
                       (= (get1 xl3 temp___2299) (get1 xl1 temp___2299))))))
            true
            false) (ite (and (<= 0 k1) (<= k1 63)) true false)) true))

;; "int__content'result'unused"
(define-fun int__contentqtresultqtunused5 () Int
  k1)

;; "infix ='result'unused"
(define-fun infix_eqqtresultqtunused () Bool
  (ite (= k1 63) true false))

;; "H"
(assert (not (= k1 63)))

;; "int__content'result'unused"
(define-fun int__contentqtresultqtunused6 () Int
  k1)

;; "o"
(define-fun o9 () Int
  (+ k1 1))

;; "infix +'result'unused"
(define-fun infix_plqtresultqtunused () Int
  o9)

(declare-const k2 Int)

;; "k'unused"
(define-fun kqtunused2 () int__ref
  (int__refqtmk k2))

;; "H"
(assert (= k2 o9))

;; "int__content'result'unused"
(define-fun int__contentqtresultqtunused7 () Int
  k2)

;; "o"
(define-fun o10 () i64
  (get x k2))

;; "get'result'unused"
(define-fun getqtresultqtunused1 () i64
  o10)

(declare-const o11 Int)

;; "Ensures"
(assert (= (to_rep o10) o11))

;; "to_rep'result'unused"
(define-fun to_repqtresultqtunused1 () Int
  o11)

;; "Ensures"
(assert (in_range1 o11))

;; "range_check_'result'unused"
(define-fun range_check_qtresultqtunused1 () Int
  o11)

(declare-const o12 xl_limb)

;; "Ensures"
(assert (= (to_rep1 o12) o11))

;; "of_rep'result'unused"
(define-fun of_repqtresultqtunused1 () xl_limb
  o12)

;; "int__content'result'unused"
(define-fun int__contentqtresultqtunused8 () Int
  k2)

;; "map__content'result'unused"
(define-fun map__contentqtresultqtunused2 () map2
  xl3)

;; "o"
(define-fun o13 () map2
  (set xl3 k2 o12))

;; "set'result'unused"
(define-fun setqtresultqtunused1 () map2
  o13)

(declare-const xl4 map2)

;; "xl'unused"
(define-fun xlqtunused3 () map__ref
  (map__refqtmk xl4))

;; "H"
(assert (= xl4 o13))

(declare-const usf1 Int)

;; "any'result'unused"
(define-fun anyqtresultqtunused2 () Int
  usf1)

;; "a'unused"
(define-fun aqtunused1 () Int
  usf1)

;; "H"
(assert (<= 0 k2))

;; Goal "def'vc"
;; File "sparknacl-sign.adb", line 278, characters 0-0
(assert
  (not (<= k2 63)))

(check-sat)
